
50
127589

3623 4148
2989 2878
7837 8448
4592 4438
5703 5288
5795 5513
2401 3390
6731 6395
8537 9001
780 720
6326 5610
3375 2641
5821 6557
5417 6234
1099 458
993 1130
5699 5284
8881 8587
8957 7977
8960 8239
2361 1371
4312 3506
5908 5770
3479 3665
1632 2307
9901 9221
6337 6353
3952 3981
4347 4761
6657 6996
7602 7593
8082 7796
2964 3345
8976 9677
7821 7631
3595 2706
1842 1720
5260 4302
1967 2606
9369 8776
589 94
7243 8180
968 1619
8561 8119
4965 4328
581 1318
10221 9854
4965 4190
9264 9784
3883 3225
